NAME: kroA200
COMMENT: Quick (5min) local search tour for kroA200 (33520.09858630836)
TYPE: TOUR
DIMENSION: 200
TOUR_SECTION: 1 53 159 24 136 61 26 199 29 110 184 37 16 51 194 63 44 188 116 122 170 48 84 11 52 87 126 96 166 165 104 97 81 197 45 33 100 156 180 131 142 69 189 73 3 59 41 89 30 68 169 35 2 181 125 161 151 187 6 109 107 157 54 75 183 155 8 22 134 17 25 34 90 143 103 146 129 114 98 88 200 171 58 141 148 28 38 71 39 130 72 83 62 185 168 173 23 144 150 94 95 50 139 86 137 196 56 152 178 5 105 43 133 176 113 195 182 91 76 70 102 21 154 140 164 167 108 192 14 74 57 36 175 10 92 99 19 119 66 153 179 118 124 138 9 78 82 7 32 174 121 46 172 40 147 12 49 18 190 149 106 93 163 4 101 60 128 193 158 77 80 65 177 67 31 47 120 112 127 186 135 42 55 20 64 162 160 79 13 15 123 27 198 191 145 85 132 111 117 115 -1
EOF